 Minimize
[ 1.0000000000000000 Z0 * Z146  ]
Subject to
c1: [ -0.5439000000000001 Z0 * Z44 -0.5439000000000001 Z0 * Z46 -1.2296300000000000 Z0 * Z47 -2.7428900000000001 Z0 * Z48 -6.9449199999999998 Z0 * Z50  + 1.0000000000000000 Z49 * Z53  + 1.0000000000000000 Z51 * Z52  ] = 0.000000
c2: [ -3.2269199999999998 Z0 * Z55 -9.0597100000000008 Z0 * Z56  + 1.0000000000000000 Z0 * Z57 -1.0000000000000000 Z0 * Z58  + 1.0000000000000000 Z53 * Z54  ] = 0.000000
c3: [ 7.3291700000000004 Z0 * Z60  + 7.7007500000000002 Z0 * Z61 -7.3103899999999999 Z0 * Z62 -7.3103899999999999 Z0 * Z63 -7.3103899999999999 Z0 * Z64 -7.3103899999999999 Z0 * Z65 -7.3103899999999999 Z0 * Z66 -7.3103899999999999 Z0 * Z67 -7.3103899999999999 Z0 * Z68 -7.3103899999999999 Z0 * Z69 -7.3103899999999999 Z0 * Z70 -7.3103899999999999 Z0 * Z71 -7.3103899999999999 Z0 * Z72 -7.3103899999999999 Z0 * Z73 -7.3103899999999999 Z0 * Z74 -7.3103899999999999 Z0 * Z75 -7.3103899999999999 Z0 * Z76  + 1.0000000000000000 Z53 * Z59  ] = 0.000000
c4: [ -6.9449199999999998 Z0 * Z50  + 7.3103899999999999 Z0 * Z62  + 7.0373900000000003 Z0 * Z78  + 7.0373900000000003 Z0 * Z79  + 6.9160399999999997 Z0 * Z80  + 6.9160399999999997 Z0 * Z81  + 6.9160399999999997 Z0 * Z82  + 6.9160399999999997 Z0 * Z83  + 6.9160399999999997 Z0 * Z84  + 6.9160399999999997 Z0 * Z85  + 6.9160399999999997 Z0 * Z86  + 6.9160399999999997 Z0 * Z87  + 6.9160399999999997 Z0 * Z88  + 6.9160399999999997 Z0 * Z89  + 6.9160399999999997 Z0 * Z90  + 6.9160399999999997 Z0 * Z91 -6.9449199999999998 Z0 * Z92 -6.9449199999999998 Z0 * Z93  + 1.0000000000000000 Z53 * Z77  ] = 0.000000
c5: [ -1.0000000000000000 Z0 * Z44 -1.0000000000000000 Z0 * Z46 -1.0000000000000000 Z0 * Z47 -1.0000000000000000 Z0 * Z48  + 1.0000000000000000 Z0 * Z49 -1.0000000000000000 Z0 * Z50  + 1.0000000000000000 Z0 * Z51  ] = 0.000000
c6: [ 1.0000000000000000 Z0 * Z44 -1.0000000000000000 Z0 * Z94 -1.0000000000000000 Z0 * Z95  ] = 0.000000
c7: [ -0.0800000000000000 Z0 * Z50  + 1.0000000000000000 Z0 * Z51  ] = 0.000000
c8: [ 0.0539100000000000 Z0 * Z96 -1.0000000000000000 Z0 * Z97  ] = 4.453290
c9: [ 1.0000000000000000 Z0 * Z52 -0.3485100000000000 Z0 * Z53  ] = 6.043880
c10: [ 1.0000000000000000 Z0 * Z53 -0.1867300000000000 Z0 * Z97  ] = 0.826390
c11: [ 1.0000000000000000 Z0 * Z49 -1.0000000000000000 Z0 * Z54 -1.0000000000000000 Z0 * Z59 -1.0000000000000000 Z0 * Z77 -1.0000000000000000 Z0 * Z98  ] = 0.000000
c12: [ 1.0000000000000000 Z0 * Z98  ] >= 104.219990
c13: [ -0.5000000000000000 Z0 * Z49  + 1.0000000000000000 Z0 * Z99  ] = 0.000000
c14: [ -1.8947400000000001 Z0 * Z99  + 1.0000000000000000 Z0 * Z100  ] = 230.000000
c15: [ 1.0000000000000000 Z0 * Z100 -1.0000000000000000 Z0 * Z101  ] = 0.000000
c16: [ 1.0000000000000000 Z0 * Z54 -1.0000000000000000 Z0 * Z55 -1.0000000000000000 Z0 * Z56  ] = 0.000000
c17: [ -0.0500000000000000 Z0 * Z54  + 1.0000000000000000 Z0 * Z55  ] = 0.000000
c18: [ -116.4140299999999968 Z0 * Z29  + 1.0000000000000000 Z0 * Z57  ] = 0.000000
c19: [ 1.0000000000000000 Z0 * Z29 -1.0000000000000000 Z0 * Z102  ] = 4.035000
c20: [ -23.3929200000000002 Z0 * Z102  + 1.0000000000000000 Z0 * Z103  ] = 0.000000
c21: [ -3.6134100000000000 Z0 * Z103  + 1.0000000000000000 Z0 * Z104  ] = 0.000000
c22: [ 1.0000000000000000 Z0 * Z56 -1.0000000000000000 Z0 * Z61  + 1.0000000000000000 Z0 * Z105 -1.0000000000000000 Z0 * Z106 -1.0000000000000000 Z0 * Z107 -1.0000000000000000 Z0 * Z108 -1.0000000000000000 Z0 * Z109 -1.0000000000000000 Z0 * Z110  ] = 0.000000
c23: [ 1.0000000000000000 Z0 * Z59  + 1.0000000000000000 Z0 * Z60  + 1.0000000000000000 Z0 * Z61 -1.0000000000000000 Z0 * Z62 -1.0000000000000000 Z0 * Z63 -1.0000000000000000 Z0 * Z64 -1.0000000000000000 Z0 * Z65 -1.0000000000000000 Z0 * Z66 -1.0000000000000000 Z0 * Z67 -1.0000000000000000 Z0 * Z68 -1.0000000000000000 Z0 * Z69 -1.0000000000000000 Z0 * Z70 -1.0000000000000000 Z0 * Z71 -1.0000000000000000 Z0 * Z72 -1.0000000000000000 Z0 * Z73 -1.0000000000000000 Z0 * Z74 -1.0000000000000000 Z0 * Z75 -1.0000000000000000 Z0 * Z76  ] = 0.000000
c24: [ -1.0000000000000000 Z0 * Z50  + 1.0000000000000000 Z0 * Z62  + 1.0000000000000000 Z0 * Z77  + 1.0000000000000000 Z0 * Z78  + 1.0000000000000000 Z0 * Z79  + 1.0000000000000000 Z0 * Z80  + 1.0000000000000000 Z0 * Z81  + 1.0000000000000000 Z0 * Z82  + 1.0000000000000000 Z0 * Z83  + 1.0000000000000000 Z0 * Z84  + 1.0000000000000000 Z0 * Z85  + 1.0000000000000000 Z0 * Z86  + 1.0000000000000000 Z0 * Z87  + 1.0000000000000000 Z0 * Z88  + 1.0000000000000000 Z0 * Z89  + 1.0000000000000000 Z0 * Z90  + 1.0000000000000000 Z0 * Z91 -1.0000000000000000 Z0 * Z92 -1.0000000000000000 Z0 * Z93  ] = 0.000000
c25: [ -1.0000000000000000 Z0 * Z46  + 1.0000000000000000 Z0 * Z111  + 1.0000000000000000 Z0 * Z112  ] = 0.000000
c26: [ 1.0000000000000000 Z0 * Z106 -1.0000000000000000 Z0 * Z113  ] = 0.000000
c27: [ -1.0000000000000000 Z0 * Z60  + 1.0000000000000000 Z0 * Z107  ] = 0.000000
c28: [ -1.0000000000000000 Z0 * Z78  + 1.0000000000000000 Z0 * Z108  ] = 0.000000
c29: [ -1.0000000000000000 Z0 * Z79  + 1.0000000000000000 Z0 * Z109  ] = 0.000000
c30: [ 7.7007500000000002 Z0 * Z106 -6.0895900000000003 Z0 * Z113 -0.0064100000000000 Z0 * Z114  ] = 0.000000
c31: [ -7.3291700000000004 Z0 * Z60  + 7.7007500000000002 Z0 * Z107 -0.0064100000000000 Z0 * Z115  ] = 0.000000
c32: [ -7.0373900000000003 Z0 * Z78  + 7.7007500000000002 Z0 * Z108 -0.0064100000000000 Z0 * Z116  ] = 0.000000
c33: [ -7.0373900000000003 Z0 * Z79  + 7.7007500000000002 Z0 * Z109 -0.0064100000000000 Z0 * Z117  ] = 0.000000
c34: [ 1.0000000000000000 Z0 * Z63 -1.0000000000000000 Z0 * Z80  ] = 0.000000
c35: [ 1.0000000000000000 Z0 * Z64 -1.0000000000000000 Z0 * Z81  ] = 0.000000
c36: [ 1.0000000000000000 Z0 * Z65 -1.0000000000000000 Z0 * Z82  ] = 0.000000
c37: [ 1.0000000000000000 Z0 * Z66 -1.0000000000000000 Z0 * Z118  ] = 0.000000
c38: [ 1.0000000000000000 Z0 * Z67 -1.0000000000000000 Z0 * Z83  ] = 0.000000
c39: [ 1.0000000000000000 Z0 * Z68 -1.0000000000000000 Z0 * Z84  ] = 0.000000
c40: [ 1.0000000000000000 Z0 * Z69 -1.0000000000000000 Z0 * Z85  ] = 0.000000
c41: [ 1.0000000000000000 Z0 * Z70 -1.0000000000000000 Z0 * Z86  ] = 0.000000
c42: [ 1.0000000000000000 Z0 * Z71 -1.0000000000000000 Z0 * Z87  ] = 0.000000
c43: [ 1.0000000000000000 Z0 * Z72 -1.0000000000000000 Z0 * Z88  ] = 0.000000
c44: [ 1.0000000000000000 Z0 * Z73 -1.0000000000000000 Z0 * Z89  ] = 0.000000
c45: [ 1.0000000000000000 Z0 * Z74 -1.0000000000000000 Z0 * Z90  ] = 0.000000
c46: [ 1.0000000000000000 Z0 * Z75 -1.0000000000000000 Z0 * Z91  ] = 0.000000
c47: [ 7.3103899999999999 Z0 * Z63 -6.9160399999999997 Z0 * Z80 -0.0064100000000000 Z0 * Z119  ] = 0.000000
c48: [ 7.3103899999999999 Z0 * Z64 -6.9160399999999997 Z0 * Z81 -0.0064100000000000 Z0 * Z120  ] = 0.000000
c49: [ 7.3103899999999999 Z0 * Z65 -6.9160399999999997 Z0 * Z82 -0.0064100000000000 Z0 * Z121  ] = 0.000000
c50: [ 7.3103899999999999 Z0 * Z66 -5.7708300000000001 Z0 * Z118 -0.0064100000000000 Z0 * Z122  ] = 0.000000
c51: [ 7.3103899999999999 Z0 * Z67 -6.9160399999999997 Z0 * Z83 -0.0064100000000000 Z0 * Z123  ] = 0.000000
c52: [ 7.3103899999999999 Z0 * Z68 -6.9160399999999997 Z0 * Z84 -0.0064100000000000 Z0 * Z124  ] = 0.000000
c53: [ 7.3103899999999999 Z0 * Z69 -6.9160399999999997 Z0 * Z85 -0.0064100000000000 Z0 * Z125  ] = 0.000000
c54: [ 7.3103899999999999 Z0 * Z70 -6.9160399999999997 Z0 * Z86 -0.0064100000000000 Z0 * Z126  ] = 0.000000
c55: [ 7.3103899999999999 Z0 * Z71 -6.9160399999999997 Z0 * Z87 -0.0064100000000000 Z0 * Z127  ] = 0.000000
c56: [ 7.3103899999999999 Z0 * Z72 -6.9160399999999997 Z0 * Z88 -0.0064100000000000 Z0 * Z128  ] = 0.000000
c57: [ 7.3103899999999999 Z0 * Z73 -6.9160399999999997 Z0 * Z89 -0.0064100000000000 Z0 * Z129  ] = 0.000000
c58: [ 7.3103899999999999 Z0 * Z74 -6.9160399999999997 Z0 * Z90 -0.0064100000000000 Z0 * Z130  ] = 0.000000
c59: [ 7.3103899999999999 Z0 * Z75 -6.9160399999999997 Z0 * Z91 -0.0064100000000000 Z0 * Z131  ] = 0.000000
c60: [ 1.0000000000000000 Z0 * Z111 -1.0000000000000000 Z0 * Z113  ] = 0.000000
c61: [ 1.0000000000000000 Z0 * Z112 -1.0000000000000000 Z0 * Z118  ] = 0.000000
c62: [ 5.6971999999999996 Z0 * Z111 -0.1298300000000000 Z0 * Z132  ] = 0.000000
c63: [ 5.6971999999999996 Z0 * Z112 -0.1298300000000000 Z0 * Z133  ] = 0.000000
c64: [ 1.0000000000000000 Z0 * Z45 -1.0000000000000000 Z0 * Z132 -1.0000000000000000 Z0 * Z133  ] = 4117.000000
c65: [ -0.3333300000000000 Z0 * Z45  + 1.0000000000000000 Z0 * Z134  ] = 0.000000
c66: [ -0.2028600000000000 Z0 * Z134  + 1.0000000000000000 Z0 * Z135  ] = 0.000000
c67: [ 1.0000000000000000 Z0 * Z135 -1.0000000000000000 Z0 * Z136  ] = 0.000000
c68: [ 1.0000000000000000 Z0 * Z135 -1.0000000000000000 Z0 * Z137  ] = 0.000000
c69: [ 1.0000000000000000 Z0 * Z138  ] = 1.000000
c70: [ 1.0000000000000000 Z0 * Z139  ] = 1.000000
c71: [ 1.0000000000000000 Z0 * Z140  ] = 1.000000
c72: [ 1.0000000000000000 Z0 * Z141  ] = 1.000000
c73: [ 1.0000000000000000 Z0 * Z138 -1.0000000000000000 Z0 * Z142  ] = 0.000000
c74: [ 1.0000000000000000 Z0 * Z138 -1.0000000000000000 Z0 * Z143  ] = 0.000000
c75: [ 1.0000000000000000 Z0 * Z139 -1.0000000000000000 Z0 * Z144  ] = 0.000000
c76: [ 0.0100000000000000 Z0 * Z111 -100.0000000000000000 Z0 * Z144  ] <= 0.000000
c77: [ 1.0000000000000000 Z0 * Z141 -1.0000000000000000 Z0 * Z145  ] = 0.000000
c78: [ 0.0100000000000000 Z0 * Z112 -100.0000000000000000 Z0 * Z145  ] <= 0.000000
c79: [ 0.1000000000000000 Z0 * Z49 -100.0000000000000000 Z0 * Z142  ] <= 0.000000
c80: [ 0.1000000000000000 Z0 * Z103 -100.0000000000000000 Z0 * Z143  ] <= 0.000000
c81: [ 0.1000000000000000 Z0 * Z56 -100.0000000000000000 Z0 * Z138  ] <= 0.000000
c82: [ 0.1000000000000000 Z0 * Z106 -100.0000000000000000 Z0 * Z139  ] <= 0.000000
c83: [ 0.1000000000000000 Z0 * Z107 -100.0000000000000000 Z0 * Z140  ] <= 0.000000
c84: [ -100.0000000000000000 Z0 * Z1  + 0.1000000000000000 Z0 * Z108  ] <= 0.000000
c85: [ -100.0000000000000000 Z0 * Z2  + 0.1000000000000000 Z0 * Z109  ] <= 0.000000
c86: [ 0.1000000000000000 Z0 * Z60 -100.0000000000000000 Z0 * Z140  ] <= 0.000000
c87: [ -100.0000000000000000 Z0 * Z1  + 0.1000000000000000 Z0 * Z78  ] <= 0.000000
c88: [ -100.0000000000000000 Z0 * Z2  + 0.1000000000000000 Z0 * Z79  ] <= 0.000000
c89: [ 0.1000000000000000 Z0 * Z113 -100.0000000000000000 Z0 * Z139  ] <= 0.000000
c90: [ -100.0000000000000000 Z0 * Z3  + 0.1000000000000000 Z0 * Z63  ] <= 0.000000
c91: [ -100.0000000000000000 Z0 * Z4  + 0.1000000000000000 Z0 * Z64  ] <= 0.000000
c92: [ -1.0000000000000000 Z0 * Z5  + 0.1000000000000000 Z0 * Z65  ] <= 0.000000
c93: [ 0.1000000000000000 Z0 * Z66 -100.0000000000000000 Z0 * Z141  ] <= 0.000000
c94: [ -100.0000000000000000 Z0 * Z6  + 0.1000000000000000 Z0 * Z67  ] <= 0.000000
c95: [ -100.0000000000000000 Z0 * Z7  + 0.1000000000000000 Z0 * Z68  ] <= 0.000000
c96: [ -100.0000000000000000 Z0 * Z8  + 0.1000000000000000 Z0 * Z69  ] <= 0.000000
c97: [ -100.0000000000000000 Z0 * Z9  + 0.1000000000000000 Z0 * Z70  ] <= 0.000000
c98: [ -100.0000000000000000 Z0 * Z10  + 0.1000000000000000 Z0 * Z71  ] <= 0.000000
c99: [ -100.0000000000000000 Z0 * Z11  + 0.1000000000000000 Z0 * Z72  ] <= 0.000000
c100: [ -100.0000000000000000 Z0 * Z12  + 0.1000000000000000 Z0 * Z73  ] <= 0.000000
c101: [ -100.0000000000000000 Z0 * Z13  + 0.1000000000000000 Z0 * Z74  ] <= 0.000000
c102: [ -100.0000000000000000 Z0 * Z14  + 0.1000000000000000 Z0 * Z75  ] <= 0.000000
c103: [ -100.0000000000000000 Z0 * Z3  + 0.1000000000000000 Z0 * Z80  ] <= 0.000000
c104: [ -100.0000000000000000 Z0 * Z4  + 0.1000000000000000 Z0 * Z81  ] <= 0.000000
c105: [ -100.0000000000000000 Z0 * Z5  + 0.1000000000000000 Z0 * Z82  ] <= 0.000000
c106: [ -100.0000000000000000 Z0 * Z6  + 0.1000000000000000 Z0 * Z83  ] <= 0.000000
c107: [ -100.0000000000000000 Z0 * Z7  + 0.1000000000000000 Z0 * Z84  ] <= 0.000000
c108: [ -100.0000000000000000 Z0 * Z8  + 0.1000000000000000 Z0 * Z85  ] <= 0.000000
c109: [ -100.0000000000000000 Z0 * Z9  + 0.1000000000000000 Z0 * Z86  ] <= 0.000000
c110: [ -100.0000000000000000 Z0 * Z10  + 0.1000000000000000 Z0 * Z87  ] <= 0.000000
c111: [ -100.0000000000000000 Z0 * Z11  + 0.1000000000000000 Z0 * Z88  ] <= 0.000000
c112: [ -100.0000000000000000 Z0 * Z12  + 0.1000000000000000 Z0 * Z89  ] <= 0.000000
c113: [ -100.0000000000000000 Z0 * Z13  + 0.1000000000000000 Z0 * Z90  ] <= 0.000000
c114: [ -100.0000000000000000 Z0 * Z14  + 0.1000000000000000 Z0 * Z91  ] <= 0.000000
c115: [ 0.1000000000000000 Z0 * Z118 -100.0000000000000000 Z0 * Z141  ] <= 0.000000
c116: [ 0.0100000000000000 Z0 * Z114 -163.0300000000000011 Z0 * Z139  ] = 0.000000
c117: [ 0.0100000000000000 Z0 * Z115 -56.0000000000000000 Z0 * Z140  ] = 0.000000
c118: [ -444.0000000000000000 Z0 * Z3  + 1.0000000000000000 Z0 * Z119  ] = 0.000000
c119: [ -100.0000000000000000 Z0 * Z4  + 1.0000000000000000 Z0 * Z120  ] = 0.000000
c120: [ -125.0000000000000000 Z0 * Z5  + 1.0000000000000000 Z0 * Z121  ] = 0.000000
c121: [ 0.0100000000000000 Z0 * Z122 -94.5000000000000000 Z0 * Z141  ] = 0.000000
c122: [ -75.0000000000000000 Z0 * Z6  + 1.0000000000000000 Z0 * Z123  ] = 0.000000
c123: [ -60.0000000000000000 Z0 * Z7  + 1.0000000000000000 Z0 * Z124  ] = 0.000000
c124: [ -36.0000000000000000 Z0 * Z8  + 1.0000000000000000 Z0 * Z125  ] = 0.000000
c125: [ -26.0000000000000000 Z0 * Z9  + 1.0000000000000000 Z0 * Z126  ] = 0.000000
c126: [ -445.0000000000000000 Z0 * Z10  + 1.0000000000000000 Z0 * Z127  ] = 0.000000
c127: [ -444.0000000000000000 Z0 * Z15  + 1.0000000000000000 Z0 * Z30  ] = 0.000000
c128: [ -100.0000000000000000 Z0 * Z16  + 1.0000000000000000 Z0 * Z31  ] = 0.000000
c129: [ -125.0000000000000000 Z0 * Z17  + 1.0000000000000000 Z0 * Z32  ] = 0.000000
c130: [ -75.0000000000000000 Z0 * Z18  + 1.0000000000000000 Z0 * Z33  ] = 0.000000
c131: [ -60.0000000000000000 Z0 * Z19  + 1.0000000000000000 Z0 * Z34  ] = 0.000000
c132: [ -36.0000000000000000 Z0 * Z20  + 1.0000000000000000 Z0 * Z35  ] = 0.000000
c133: [ -26.0000000000000000 Z0 * Z21  + 1.0000000000000000 Z0 * Z36  ] = 0.000000
c134: [ -445.0000000000000000 Z0 * Z22  + 1.0000000000000000 Z0 * Z37  ] = 0.000000
c135: [ -300.0000000000000000 Z0 * Z1  + 0.0100000000000000 Z0 * Z116  ] <= 0.000000
c136: [ -300.0000000000000000 Z0 * Z2  + 0.0100000000000000 Z0 * Z117  ] <= 0.000000
c137: [ -300.0000000000000000 Z0 * Z11  + 0.0100000000000000 Z0 * Z128  ] <= 0.000000
c138: [ -300.0000000000000000 Z0 * Z12  + 0.0100000000000000 Z0 * Z129  ] <= 0.000000
c139: [ -300.0000000000000000 Z0 * Z13  + 0.0100000000000000 Z0 * Z130  ] <= 0.000000
c140: [ -300.0000000000000000 Z0 * Z14  + 0.0100000000000000 Z0 * Z131  ] <= 0.000000
c141: [ -300.0000000000000000 Z0 * Z23  + 0.0100000000000000 Z0 * Z38  ] <= 0.000000
c142: [ -300.0000000000000000 Z0 * Z24  + 0.0100000000000000 Z0 * Z39  ] <= 0.000000
c143: [ -300.0000000000000000 Z0 * Z25  + 0.0100000000000000 Z0 * Z40  ] <= 0.000000
c144: [ -300.0000000000000000 Z0 * Z26  + 0.0100000000000000 Z0 * Z41  ] <= 0.000000
c145: [ -300.0000000000000000 Z0 * Z27  + 0.0100000000000000 Z0 * Z42  ] <= 0.000000
c146: [ -300.0000000000000000 Z0 * Z28  + 0.0100000000000000 Z0 * Z43  ] <= 0.000000
c147: [ 1.0000000000000000 Z0 * Z38 -1.0000000000000000 Z0 * Z100  + 1.0000000000000000 Z0 * Z116  ] = 0.000000
c148: [ 1.0000000000000000 Z0 * Z39 -1.0000000000000000 Z0 * Z101  + 1.0000000000000000 Z0 * Z117  ] = 0.000000
c149: [ 1.0000000000000000 Z0 * Z40 -1.0000000000000000 Z0 * Z104  + 1.0000000000000000 Z0 * Z128  ] = 0.000000
c150: [ 1.0000000000000000 Z0 * Z41  + 1.0000000000000000 Z0 * Z129 -1.0000000000000000 Z0 * Z135  ] = 0.000000
c151: [ 1.0000000000000000 Z0 * Z42  + 1.0000000000000000 Z0 * Z130 -1.0000000000000000 Z0 * Z136  ] = 0.000000
c152: [ 1.0000000000000000 Z0 * Z43  + 1.0000000000000000 Z0 * Z131 -1.0000000000000000 Z0 * Z137  ] = 0.000000
c153: [ 1.0000000000000000 Z0 * Z1  + 1.0000000000000000 Z0 * Z23  ] = 1.000000
c154: [ 1.0000000000000000 Z0 * Z2  + 1.0000000000000000 Z0 * Z24  ] = 1.000000
c155: [ 1.0000000000000000 Z0 * Z3  + 1.0000000000000000 Z0 * Z15  ] = 1.000000
c156: [ 1.0000000000000000 Z0 * Z4  + 1.0000000000000000 Z0 * Z16  ] = 1.000000
c157: [ 1.0000000000000000 Z0 * Z5  + 1.0000000000000000 Z0 * Z17  ] = 1.000000
c158: [ 1.0000000000000000 Z0 * Z6  + 1.0000000000000000 Z0 * Z18  ] = 1.000000
c159: [ 1.0000000000000000 Z0 * Z7  + 1.0000000000000000 Z0 * Z19  ] = 1.000000
c160: [ 1.0000000000000000 Z0 * Z8  + 1.0000000000000000 Z0 * Z20  ] = 1.000000
c161: [ 1.0000000000000000 Z0 * Z9  + 1.0000000000000000 Z0 * Z21  ] = 1.000000
c162: [ 1.0000000000000000 Z0 * Z10  + 1.0000000000000000 Z0 * Z22  ] = 1.000000
c163: [ 1.0000000000000000 Z0 * Z11  + 1.0000000000000000 Z0 * Z25  ] = 1.000000
c164: [ 1.0000000000000000 Z0 * Z12  + 1.0000000000000000 Z0 * Z26  ] = 1.000000
c165: [ 1.0000000000000000 Z0 * Z13  + 1.0000000000000000 Z0 * Z27  ] = 1.000000
c166: [ 1.0000000000000000 Z0 * Z14  + 1.0000000000000000 Z0 * Z28  ] = 1.000000
c167: [ 1.0000000000000000 Z0 * Z14  + 1.0000000000000000 Z0 * Z24  ] = 0.000000
c168: [ -87.3969000000000023 Z0 * Z29 -0.0378100000000000 Z0 * Z30 -0.0378100000000000 Z0 * Z31 -0.0378100000000000 Z0 * Z32 -0.0378100000000000 Z0 * Z33 -0.0378100000000000 Z0 * Z34 -0.0378100000000000 Z0 * Z35 -0.0378100000000000 Z0 * Z36 -0.0378100000000000 Z0 * Z37 -0.0378100000000000 Z0 * Z38 -0.0378100000000000 Z0 * Z39 -0.0378100000000000 Z0 * Z40 -0.0378100000000000 Z0 * Z41 -0.0378100000000000 Z0 * Z42 -0.0378100000000000 Z0 * Z43 -0.3000000000000000 Z0 * Z44 -0.0170000000000000 Z0 * Z45  + 1.0000000000000000 Z0 * Z146  ] = 0.000000
ac1: Z0 - 1 = 0
Bounds
1 <= Z0 <= 1
0.0000000000000000 <= Z1 <= 1.0000000000000000
0.0000000000000000 <= Z2 <= 1.0000000000000000
0.0000000000000000 <= Z3 <= 1.0000000000000000
0.0000000000000000 <= Z4 <= 1.0000000000000000
0.0000000000000000 <= Z5 <= 1.0000000000000000
0.0000000000000000 <= Z6 <= 1.0000000000000000
0.0000000000000000 <= Z7 <= 1.0000000000000000
0.0000000000000000 <= Z8 <= 1.0000000000000000
0.0000000000000000 <= Z9 <= 1.0000000000000000
0.0000000000000000 <= Z10 <= 1.0000000000000000
0.0000000000000000 <= Z11 <= 1.0000000000000000
0.0000000000000000 <= Z12 <= 1.0000000000000000
0.0000000000000000 <= Z13 <= 1.0000000000000000
0.0000000000000000 <= Z14 <= 1.0000000000000000
0.0000000000000000 <= Z15 <= 1.0000000000000000
0.0000000000000000 <= Z16 <= 1.0000000000000000
0.0000000000000000 <= Z17 <= 1.0000000000000000
0.0000000000000000 <= Z18 <= 1.0000000000000000
0.0000000000000000 <= Z19 <= 1.0000000000000000
0.0000000000000000 <= Z20 <= 1.0000000000000000
0.0000000000000000 <= Z21 <= 1.0000000000000000
0.0000000000000000 <= Z22 <= 1.0000000000000000
0.0000000000000000 <= Z23 <= 1.0000000000000000
0.0000000000000000 <= Z24 <= 1.0000000000000000
0.0000000000000000 <= Z25 <= 1.0000000000000000
0.0000000000000000 <= Z26 <= 1.0000000000000000
0.0000000000000000 <= Z27 <= 1.0000000000000000
0.0000000000000000 <= Z28 <= 1.0000000000000000
0.0000000000000000 <= Z29 <= 100000000.0000000000000000
0.0000000000000000 <= Z30 <= 100000000.0000000000000000
0.0000000000000000 <= Z31 <= 100000000.0000000000000000
0.0000000000000000 <= Z32 <= 100000000.0000000000000000
0.0000000000000000 <= Z33 <= 100000000.0000000000000000
0.0000000000000000 <= Z34 <= 100000000.0000000000000000
0.0000000000000000 <= Z35 <= 100000000.0000000000000000
0.0000000000000000 <= Z36 <= 100000000.0000000000000000
0.0000000000000000 <= Z37 <= 100000000.0000000000000000
0.0000000000000000 <= Z38 <= 100000000.0000000000000000
0.0000000000000000 <= Z39 <= 100000000.0000000000000000
0.0000000000000000 <= Z40 <= 100000000.0000000000000000
0.0000000000000000 <= Z41 <= 100000000.0000000000000000
0.0000000000000000 <= Z42 <= 100000000.0000000000000000
0.0000000000000000 <= Z43 <= 100000000.0000000000000000
0.0000000000000000 <= Z44 <= 100000000.0000000000000000
0.0000000000000000 <= Z45 <= 100000000.0000000000000000
0.0000000000000000 <= Z46 <= 100000000.0000000000000000
0.0000000000000000 <= Z47 <= 29.1999999999999993
0.0000000000000000 <= Z48 <= 1.2000000000000000
0.0000000000000000 <= Z49 <= 100000000.0000000000000000
0.0000000000000000 <= Z50 <= 100000000.0000000000000000
0.0000000000000000 <= Z51 <= 100000000.0000000000000000
0.0000000000000000 <= Z52 <= 100000000.0000000000000000
0.0000000000000000 <= Z53 <= 100000000.0000000000000000
0.0000000000000000 <= Z54 <= 100000000.0000000000000000
0.0000000000000000 <= Z55 <= 100000000.0000000000000000
0.0000000000000000 <= Z56 <= 100000000.0000000000000000
0.0000000000000000 <= Z57 <= 100000000.0000000000000000
353.6600000000000250 <= Z58 <= 100000000.0000000000000000
0.0000000000000000 <= Z59 <= 100000000.0000000000000000
0.0000000000000000 <= Z60 <= 100000000.0000000000000000
0.0000000000000000 <= Z61 <= 100000000.0000000000000000
0.0000000000000000 <= Z62 <= 100000000.0000000000000000
0.0000000000000000 <= Z63 <= 100000000.0000000000000000
0.0000000000000000 <= Z64 <= 100000000.0000000000000000
0.0000000000000000 <= Z65 <= 100000000.0000000000000000
0.0000000000000000 <= Z66 <= 100000000.0000000000000000
0.0000000000000000 <= Z67 <= 100000000.0000000000000000
0.0000000000000000 <= Z68 <= 100000000.0000000000000000
0.0000000000000000 <= Z69 <= 100000000.0000000000000000
0.0000000000000000 <= Z70 <= 100000000.0000000000000000
0.0000000000000000 <= Z71 <= 100000000.0000000000000000
0.0000000000000000 <= Z72 <= 100000000.0000000000000000
0.0000000000000000 <= Z73 <= 100000000.0000000000000000
0.0000000000000000 <= Z74 <= 100000000.0000000000000000
0.0000000000000000 <= Z75 <= 100000000.0000000000000000
32.7999999999999972 <= Z76 <= 100000000.0000000000000000
0.0000000000000000 <= Z77 <= 100000000.0000000000000000
0.0000000000000000 <= Z78 <= 100000000.0000000000000000
0.0000000000000000 <= Z79 <= 100000000.0000000000000000
0.0000000000000000 <= Z80 <= 100000000.0000000000000000
0.0000000000000000 <= Z81 <= 100000000.0000000000000000
0.0000000000000000 <= Z82 <= 100000000.0000000000000000
0.0000000000000000 <= Z83 <= 100000000.0000000000000000
0.0000000000000000 <= Z84 <= 100000000.0000000000000000
0.0000000000000000 <= Z85 <= 100000000.0000000000000000
0.0000000000000000 <= Z86 <= 100000000.0000000000000000
0.0000000000000000 <= Z87 <= 100000000.0000000000000000
0.0000000000000000 <= Z88 <= 100000000.0000000000000000
0.0000000000000000 <= Z89 <= 100000000.0000000000000000
0.0000000000000000 <= Z90 <= 100000000.0000000000000000
0.0000000000000000 <= Z91 <= 100000000.0000000000000000
0.0000000000000000 <= Z92 <= 100000000.0000000000000000
24.1000000000000014 <= Z93 <= 100000000.0000000000000000
0.0000000000000000 <= Z94 <= 100000000.0000000000000000
0.0000000000000000 <= Z95 <= 21.0000000000000000
0.0000000000000000 <= Z96 <= 100000000.0000000000000000
1.2000000000000000 <= Z97 <= 2.2000000000000002
0.0000000000000000 <= Z98 <= 100000000.0000000000000000
0.0000000000000000 <= Z99 <= 100000000.0000000000000000
0.0000000000000000 <= Z100 <= 100000000.0000000000000000
0.0000000000000000 <= Z101 <= 100000000.0000000000000000
0.0000000000000000 <= Z102 <= 100000000.0000000000000000
0.0000000000000000 <= Z103 <= 100000000.0000000000000000
0.0000000000000000 <= Z104 <= 100000000.0000000000000000
0.0000000000000000 <= Z105 <= 98.7199999999999989
0.0000000000000000 <= Z106 <= 100000000.0000000000000000
0.0000000000000000 <= Z107 <= 100000000.0000000000000000
0.0000000000000000 <= Z108 <= 100000000.0000000000000000
0.0000000000000000 <= Z109 <= 100000000.0000000000000000
8.6999999999999993 <= Z110 <= 100000000.0000000000000000
0.0000000000000000 <= Z111 <= 100000000.0000000000000000
0.0000000000000000 <= Z112 <= 100000000.0000000000000000
0.0000000000000000 <= Z113 <= 100000000.0000000000000000
0.0000000000000000 <= Z114 <= 100000000.0000000000000000
0.0000000000000000 <= Z115 <= 100000000.0000000000000000
0.0000000000000000 <= Z116 <= 100000000.0000000000000000
0.0000000000000000 <= Z117 <= 100000000.0000000000000000
0.0000000000000000 <= Z118 <= 100000000.0000000000000000
0.0000000000000000 <= Z119 <= 100000000.0000000000000000
0.0000000000000000 <= Z120 <= 100000000.0000000000000000
0.0000000000000000 <= Z121 <= 100000000.0000000000000000
0.0000000000000000 <= Z122 <= 100000000.0000000000000000
0.0000000000000000 <= Z123 <= 100000000.0000000000000000
0.0000000000000000 <= Z124 <= 100000000.0000000000000000
0.0000000000000000 <= Z125 <= 100000000.0000000000000000
0.0000000000000000 <= Z126 <= 100000000.0000000000000000
0.0000000000000000 <= Z127 <= 100000000.0000000000000000
0.0000000000000000 <= Z128 <= 100000000.0000000000000000
0.0000000000000000 <= Z129 <= 100000000.0000000000000000
0.0000000000000000 <= Z130 <= 100000000.0000000000000000
0.0000000000000000 <= Z131 <= 100000000.0000000000000000
0.0000000000000000 <= Z132 <= 100000000.0000000000000000
0.0000000000000000 <= Z133 <= 100000000.0000000000000000
0.0000000000000000 <= Z134 <= 100000000.0000000000000000
0.0000000000000000 <= Z135 <= 100000000.0000000000000000
0.0000000000000000 <= Z136 <= 100000000.0000000000000000
0.0000000000000000 <= Z137 <= 100000000.0000000000000000
0.0000000000000000 <= Z138 <= 100000000.0000000000000000
0.0000000000000000 <= Z139 <= 100000000.0000000000000000
0.0000000000000000 <= Z140 <= 100000000.0000000000000000
0.0000000000000000 <= Z141 <= 100000000.0000000000000000
0.0000000000000000 <= Z142 <= 100000000.0000000000000000
0.0000000000000000 <= Z143 <= 100000000.0000000000000000
0.0000000000000000 <= Z144 <= 100000000.0000000000000000
0.0000000000000000 <= Z145 <= 100000000.0000000000000000
-100000000.0000000000000000 <= Z146 <= 100000000.0000000000000000
Binaries
Z1 Z2 Z3 Z4 Z5 Z6 Z7 Z8 Z9 Z10 Z11 Z12 Z13 Z14 Z15 Z16 Z17 Z18 Z19 Z20 Z21 Z22 Z23 Z24 Z25 Z26 Z27 Z28 
End